Minimize
 obj: + 143.3 x_user1_load0_hour0 + 174.5 x_user1_load0_hour1 
 + 195.1 x_user1_load0_hour2 + 221 x_user1_load0_hour3 
 + 232.2 x_user1_load0_hour4 + 234.6 x_user1_load0_hour5 
 + 226.6 x_user1_load0_hour6 + 221.8 x_user1_load0_hour7 
 + 212.5 x_user1_load0_hour8 + 190.3 x_user1_load0_hour9 
 + 165.5 x_user1_load0_hour10 + 177.5 x_user1_load1_hour0 
 + 205.6 x_user1_load1_hour1 + 236 x_user1_load1_hour2 
 + 261.6 x_user1_load1_hour3 + 275.2 x_user1_load1_hour4 
 + 270.2 x_user1_load1_hour5 + 263.4 x_user1_load1_hour6 
 + 260 x_user1_load1_hour7 + 242.7 x_user1_load1_hour8 
 + 218.5 x_user1_load1_hour9 + 186.6 x_user1_load1_hour10 
 + 203.5 x_user1_load2_hour0 + 250.4 x_user1_load2_hour1 
 + 273.5 x_user1_load2_hour2 + 304.4 x_user1_load2_hour3 
 + 305.8 x_user1_load2_hour4 + 308.8 x_user1_load2_hour5 
 + 302.6 x_user1_load2_hour6 + 286 x_user1_load2_hour7 
 + 271.8 x_user1_load2_hour8 + 237.5 x_user1_load2_hour9 
 + 199.4 x_user1_load2_hour10 + 96.2 x_user1_load3_hour0 
 + 118.3 x_user1_load3_hour1 + 131 x_user1_load3_hour2 
 + 148.2 x_user1_load3_hour3 + 154 x_user1_load3_hour4 
 + 156.2 x_user1_load3_hour5 + 151.2 x_user1_load3_hour6 
 + 146.6 x_user1_load3_hour7 + 140.7 x_user1_load3_hour8 
 + 125.2 x_user1_load3_hour9 + 108.3 x_user1_load3_hour10 
 + 74.2 x_user1_load4_hour0 + 85.3 x_user1_load4_hour1 
 + 99.1 x_user1_load4_hour2 + 110.6 x_user1_load4_hour3 
 + 118.6 x_user1_load4_hour4 + 116.4 x_user1_load4_hour5 
 + 112.8 x_user1_load4_hour6 + 113 x_user1_load4_hour7 
 + 105.8 x_user1_load4_hour8 + 96.2 x_user1_load4_hour9 
 + 83.3 x_user1_load4_hour10 + 66.1 x_user1_load4_hour11 
 + 87.1 x_user1_load5_hour0 + 110.4 x_user1_load5_hour1 
 + 122.3 x_user1_load5_hour2 + 142.8 x_user1_load5_hour3 
 + 153.8 x_user1_load5_hour4 + 159.2 x_user1_load5_hour5 
 + 151.4 x_user1_load5_hour6 + 150 x_user1_load5_hour7 
 + 147.4 x_user1_load5_hour8 + 133.1 x_user1_load5_hour9 
 + 119.4 x_user1_load5_hour10 + 98.3 x_user1_load5_hour11 

Subject To 
 load_load0_scheduled: + 1 x_user1_load0_hour0 + 1 x_user1_load0_hour1 
 + 1 x_user1_load0_hour2 + 1 x_user1_load0_hour3 + 1 x_user1_load0_hour4 
 + 1 x_user1_load0_hour5 + 1 x_user1_load0_hour6 + 1 x_user1_load0_hour7 
 + 1 x_user1_load0_hour8 + 1 x_user1_load0_hour9 + 1 x_user1_load0_hour10 
  = 1.0
 load_load1_scheduled: + 1 x_user1_load1_hour0 + 1 x_user1_load1_hour1 
 + 1 x_user1_load1_hour2 + 1 x_user1_load1_hour3 + 1 x_user1_load1_hour4 
 + 1 x_user1_load1_hour5 + 1 x_user1_load1_hour6 + 1 x_user1_load1_hour7 
 + 1 x_user1_load1_hour8 + 1 x_user1_load1_hour9 + 1 x_user1_load1_hour10 
  = 1.0
 load_load2_scheduled: + 1 x_user1_load2_hour0 + 1 x_user1_load2_hour1 
 + 1 x_user1_load2_hour2 + 1 x_user1_load2_hour3 + 1 x_user1_load2_hour4 
 + 1 x_user1_load2_hour5 + 1 x_user1_load2_hour6 + 1 x_user1_load2_hour7 
 + 1 x_user1_load2_hour8 + 1 x_user1_load2_hour9 + 1 x_user1_load2_hour10 
  = 1.0
 load_load3_scheduled: + 1 x_user1_load3_hour0 + 1 x_user1_load3_hour1 
 + 1 x_user1_load3_hour2 + 1 x_user1_load3_hour3 + 1 x_user1_load3_hour4 
 + 1 x_user1_load3_hour5 + 1 x_user1_load3_hour6 + 1 x_user1_load3_hour7 
 + 1 x_user1_load3_hour8 + 1 x_user1_load3_hour9 + 1 x_user1_load3_hour10 
  = 1.0
 load_load4_scheduled: + 1 x_user1_load4_hour0 + 1 x_user1_load4_hour1 
 + 1 x_user1_load4_hour2 + 1 x_user1_load4_hour3 + 1 x_user1_load4_hour4 
 + 1 x_user1_load4_hour5 + 1 x_user1_load4_hour6 + 1 x_user1_load4_hour7 
 + 1 x_user1_load4_hour8 + 1 x_user1_load4_hour9 + 1 x_user1_load4_hour10 
 + 1 x_user1_load4_hour11  = 1.0
 load_load5_scheduled: + 1 x_user1_load5_hour0 + 1 x_user1_load5_hour1 
 + 1 x_user1_load5_hour2 + 1 x_user1_load5_hour3 + 1 x_user1_load5_hour4 
 + 1 x_user1_load5_hour5 + 1 x_user1_load5_hour6 + 1 x_user1_load5_hour7 
 + 1 x_user1_load5_hour8 + 1 x_user1_load5_hour9 + 1 x_user1_load5_hour10 
 + 1 x_user1_load5_hour11  = 1.0
 MaxLoadConnection_user1_0: + 3 x_user1_load0_hour0 + 2 x_user1_load1_hour0 
 + 3 x_user1_load2_hour0 + 2 x_user1_load3_hour0 + 1 x_user1_load4_hour0 
 + 3 x_user1_load5_hour0  <= 4.0
 MaxLoadConnection_user1_1: + 3 x_user1_load0_hour1 + 2 x_user1_load0_hour0 
 + 2 x_user1_load1_hour1 + 4 x_user1_load1_hour0 + 3 x_user1_load2_hour1 
 + 1 x_user1_load2_hour0 + 2 x_user1_load3_hour1 + 1 x_user1_load3_hour0 
 + 1 x_user1_load4_hour1 + 2 x_user1_load4_hour0 + 3 x_user1_load5_hour1 
 + 1 x_user1_load5_hour0  <= 4.0
 MaxLoadConnection_user1_2: + 3 x_user1_load0_hour2 + 2 x_user1_load0_hour1 
 + 1 x_user1_load0_hour0 + 2 x_user1_load1_hour2 + 4 x_user1_load1_hour1 
 + 1 x_user1_load1_hour0 + 3 x_user1_load2_hour2 + 1 x_user1_load2_hour1 
 + 4 x_user1_load2_hour0 + 2 x_user1_load3_hour2 + 1 x_user1_load3_hour1 
 + 1 x_user1_load3_hour0 + 1 x_user1_load4_hour2 + 2 x_user1_load4_hour1 
 + 3 x_user1_load5_hour2 + 1 x_user1_load5_hour1  <= 4.0
 MaxLoadConnection_user1_3: + 3 x_user1_load0_hour3 + 2 x_user1_load0_hour2 
 + 1 x_user1_load0_hour1 + 2 x_user1_load1_hour3 + 4 x_user1_load1_hour2 
 + 1 x_user1_load1_hour1 + 3 x_user1_load2_hour3 + 1 x_user1_load2_hour2 
 + 4 x_user1_load2_hour1 + 2 x_user1_load3_hour3 + 1 x_user1_load3_hour2 
 + 1 x_user1_load3_hour1 + 1 x_user1_load4_hour3 + 2 x_user1_load4_hour2 
 + 3 x_user1_load5_hour3 + 1 x_user1_load5_hour2  <= 4.0
 MaxLoadConnection_user1_4: + 3 x_user1_load0_hour4 + 2 x_user1_load0_hour3 
 + 1 x_user1_load0_hour2 + 2 x_user1_load1_hour4 + 4 x_user1_load1_hour3 
 + 1 x_user1_load1_hour2 + 3 x_user1_load2_hour4 + 1 x_user1_load2_hour3 
 + 4 x_user1_load2_hour2 + 2 x_user1_load3_hour4 + 1 x_user1_load3_hour3 
 + 1 x_user1_load3_hour2 + 1 x_user1_load4_hour4 + 2 x_user1_load4_hour3 
 + 3 x_user1_load5_hour4 + 1 x_user1_load5_hour3  <= 4.0
 MaxLoadConnection_user1_5: + 3 x_user1_load0_hour5 + 2 x_user1_load0_hour4 
 + 1 x_user1_load0_hour3 + 2 x_user1_load1_hour5 + 4 x_user1_load1_hour4 
 + 1 x_user1_load1_hour3 + 3 x_user1_load2_hour5 + 1 x_user1_load2_hour4 
 + 4 x_user1_load2_hour3 + 2 x_user1_load3_hour5 + 1 x_user1_load3_hour4 
 + 1 x_user1_load3_hour3 + 1 x_user1_load4_hour5 + 2 x_user1_load4_hour4 
 + 3 x_user1_load5_hour5 + 1 x_user1_load5_hour4  <= 4.0
 MaxLoadConnection_user1_6: + 3 x_user1_load0_hour6 + 2 x_user1_load0_hour5 
 + 1 x_user1_load0_hour4 + 2 x_user1_load1_hour6 + 4 x_user1_load1_hour5 
 + 1 x_user1_load1_hour4 + 3 x_user1_load2_hour6 + 1 x_user1_load2_hour5 
 + 4 x_user1_load2_hour4 + 2 x_user1_load3_hour6 + 1 x_user1_load3_hour5 
 + 1 x_user1_load3_hour4 + 1 x_user1_load4_hour6 + 2 x_user1_load4_hour5 
 + 3 x_user1_load5_hour6 + 1 x_user1_load5_hour5  <= 4.0
 MaxLoadConnection_user1_7: + 3 x_user1_load0_hour7 + 2 x_user1_load0_hour6 
 + 1 x_user1_load0_hour5 + 2 x_user1_load1_hour7 + 4 x_user1_load1_hour6 
 + 1 x_user1_load1_hour5 + 3 x_user1_load2_hour7 + 1 x_user1_load2_hour6 
 + 4 x_user1_load2_hour5 + 2 x_user1_load3_hour7 + 1 x_user1_load3_hour6 
 + 1 x_user1_load3_hour5 + 1 x_user1_load4_hour7 + 2 x_user1_load4_hour6 
 + 3 x_user1_load5_hour7 + 1 x_user1_load5_hour6  <= 4.0
 MaxLoadConnection_user1_8: + 3 x_user1_load0_hour8 + 2 x_user1_load0_hour7 
 + 1 x_user1_load0_hour6 + 2 x_user1_load1_hour8 + 4 x_user1_load1_hour7 
 + 1 x_user1_load1_hour6 + 3 x_user1_load2_hour8 + 1 x_user1_load2_hour7 
 + 4 x_user1_load2_hour6 + 2 x_user1_load3_hour8 + 1 x_user1_load3_hour7 
 + 1 x_user1_load3_hour6 + 1 x_user1_load4_hour8 + 2 x_user1_load4_hour7 
 + 3 x_user1_load5_hour8 + 1 x_user1_load5_hour7  <= 4.0
 MaxLoadConnection_user1_9: + 3 x_user1_load0_hour9 + 2 x_user1_load0_hour8 
 + 1 x_user1_load0_hour7 + 2 x_user1_load1_hour9 + 4 x_user1_load1_hour8 
 + 1 x_user1_load1_hour7 + 3 x_user1_load2_hour9 + 1 x_user1_load2_hour8 
 + 4 x_user1_load2_hour7 + 2 x_user1_load3_hour9 + 1 x_user1_load3_hour8 
 + 1 x_user1_load3_hour7 + 1 x_user1_load4_hour9 + 2 x_user1_load4_hour8 
 + 3 x_user1_load5_hour9 + 1 x_user1_load5_hour8  <= 4.0
 MaxLoadConnection_user1_10: + 3 x_user1_load0_hour10 + 2 x_user1_load0_hour9 
 + 1 x_user1_load0_hour8 + 2 x_user1_load1_hour10 + 4 x_user1_load1_hour9 
 + 1 x_user1_load1_hour8 + 3 x_user1_load2_hour10 + 1 x_user1_load2_hour9 
 + 4 x_user1_load2_hour8 + 2 x_user1_load3_hour10 + 1 x_user1_load3_hour9 
 + 1 x_user1_load3_hour8 + 1 x_user1_load4_hour10 + 2 x_user1_load4_hour9 
 + 3 x_user1_load5_hour10 + 1 x_user1_load5_hour9  <= 4.0
 MaxLoadConnection_user1_11: + 2 x_user1_load0_hour10 + 1 x_user1_load0_hour9 
 + 4 x_user1_load1_hour10 + 1 x_user1_load1_hour9 + 1 x_user1_load2_hour10 
 + 4 x_user1_load2_hour9 + 1 x_user1_load3_hour10 + 1 x_user1_load3_hour9 
 + 1 x_user1_load4_hour11 + 2 x_user1_load4_hour10 + 3 x_user1_load5_hour11 
 + 1 x_user1_load5_hour10  <= 4.0
 MaxLoadConnection_user1_12: + 1 x_user1_load0_hour10 + 1 x_user1_load1_hour10 
 + 4 x_user1_load2_hour10 + 1 x_user1_load3_hour10 + 2 x_user1_load4_hour11 
 + 1 x_user1_load5_hour11  <= 4.0

Bounds

Binary
 x_user1_load0_hour0 x_user1_load0_hour1 x_user1_load0_hour2
  x_user1_load0_hour3 x_user1_load0_hour4 x_user1_load0_hour5
  x_user1_load0_hour6 x_user1_load0_hour7 x_user1_load0_hour8
  x_user1_load0_hour9 x_user1_load0_hour10 x_user1_load1_hour0
  x_user1_load1_hour1 x_user1_load1_hour2 x_user1_load1_hour3
  x_user1_load1_hour4 x_user1_load1_hour5 x_user1_load1_hour6
  x_user1_load1_hour7 x_user1_load1_hour8 x_user1_load1_hour9
  x_user1_load1_hour10 x_user1_load2_hour0 x_user1_load2_hour1
  x_user1_load2_hour2 x_user1_load2_hour3 x_user1_load2_hour4
  x_user1_load2_hour5 x_user1_load2_hour6 x_user1_load2_hour7
  x_user1_load2_hour8 x_user1_load2_hour9 x_user1_load2_hour10
  x_user1_load3_hour0 x_user1_load3_hour1 x_user1_load3_hour2
  x_user1_load3_hour3 x_user1_load3_hour4 x_user1_load3_hour5
  x_user1_load3_hour6 x_user1_load3_hour7 x_user1_load3_hour8
  x_user1_load3_hour9 x_user1_load3_hour10 x_user1_load4_hour0
  x_user1_load4_hour1 x_user1_load4_hour2 x_user1_load4_hour3
  x_user1_load4_hour4 x_user1_load4_hour5 x_user1_load4_hour6
  x_user1_load4_hour7 x_user1_load4_hour8 x_user1_load4_hour9
  x_user1_load4_hour10 x_user1_load4_hour11 x_user1_load5_hour0
  x_user1_load5_hour1 x_user1_load5_hour2 x_user1_load5_hour3
  x_user1_load5_hour4 x_user1_load5_hour5 x_user1_load5_hour6
  x_user1_load5_hour7 x_user1_load5_hour8 x_user1_load5_hour9
  x_user1_load5_hour10 x_user1_load5_hour11
General

End